p cnf 134 182               
15 58 0
-8 58 0
16 59 0
-9 59 0
17 60 0
-10 60 0
18 61 0
-11 61 0
19 62 0
-12 62 0
20 63 0
-13 63 0
21 64 0
-14 64 0
-58 -59 -60 -61 -62 -63 -64 65 0
-65 -66 0
15 50 0
-1 50 0
16 51 0
-2 51 0
17 52 0
-3 52 0
18 53 0
-4 53 0
19 54 0
-5 54 0
20 55 0
-6 55 0
21 56 0
-7 56 0
-50 -51 -52 -53 -54 -55 -56 57 0
-57 -66 0
-16 -15 -22 0
22 -34 0
-15 23 0
-16 23 0
15 16 -23 0
-23 -17 -24 0
24 -34 0
-17 25 0
-23 25 0
17 23 -25 0
-25 -18 -26 0
26 -34 0
-18 27 0
-25 27 0
18 25 -27 0
-27 -19 -28 0
28 -34 0
-19 29 0
-27 29 0
19 27 -29 0
-29 -20 -30 0
30 -34 0
-20 31 0
-29 31 0
20 29 -31 0
-31 -21 -32 0
32 -34 0
21 31 -33 0
33 -34 0
34 -66 0
1 8 -35 0
-15 35 -42 0
42 -49 0
2 9 -36 0
-16 36 -43 0
43 -49 0
3 10 -37 0
-17 37 -44 0
44 -49 0
4 11 -38 0
-18 38 -45 0
45 -49 0
5 12 -39 0
-19 39 -46 0
46 -49 0
6 13 -40 0
-20 40 -47 0
47 -49 0
7 14 -41 0
-21 41 -48 0
48 -49 0
49 -66 0
-1 2 -67 0
67 -77 0
-1 -2 68 0
1 2 68 0
-2 2 68 0
-8 9 -69 0
-68 69 -70 0
70 -77 0
-8 -9 71 0
8 9 71 0
-9 9 71 0
-68 -71 72 0
-15 16 -73 0
-72 73 -74 0
74 -77 0
77 -133 0
-2 3 -78 0
78 -88 0
-2 -3 79 0
2 3 79 0
-3 3 79 0
-9 10 -80 0
-79 80 -81 0
81 -88 0
-9 -10 82 0
9 10 82 0
-10 10 82 0
-79 -82 83 0
-16 17 -84 0
-83 84 -85 0
85 -88 0
88 -133 0
-3 4 -89 0
89 -99 0
-3 -4 90 0
3 4 90 0
-4 4 90 0
-10 11 -91 0
-90 91 -92 0
92 -99 0
-10 -11 93 0
10 11 93 0
-11 11 93 0
-90 -93 94 0
-17 18 -95 0
-94 95 -96 0
96 -99 0
99 -133 0
-4 5 -100 0
100 -110 0
-4 -5 101 0
4 5 101 0
-5 5 101 0
-11 12 -102 0
-101 102 -103 0
103 -110 0
-11 -12 104 0
11 12 104 0
-12 12 104 0
-101 -104 105 0
-18 19 -106 0
-105 106 -107 0
107 -110 0
110 -133 0
-5 6 -111 0
111 -121 0
-5 -6 112 0
5 6 112 0
-6 6 112 0
-12 13 -113 0
-112 113 -114 0
114 -121 0
-12 -13 115 0
12 13 115 0
-13 13 115 0
-112 -115 116 0
-19 20 -117 0
-116 117 -118 0
118 -121 0
121 -133 0
-6 7 -122 0
122 -132 0
-6 -7 123 0
6 7 123 0
-7 7 123 0
-13 14 -124 0
-123 124 -125 0
125 -132 0
-13 -14 126 0
13 14 126 0
-14 14 126 0
-123 -126 127 0
-20 21 -128 0
-127 128 -129 0
129 -132 0
132 -133 0
66 0
133 0
